NAME : amz0283.1584126_75126.tour
COMMENT : Cost = 1584126_75126
COMMENT : Found by LKH-AMZ [Keld Helsgaun] Sun May 11 12:22:55 2025
COMMENT : TW viol.: 0 #: 0
TYPE : TOUR
DIMENSION : 120
TOUR_SECTION
29
115
41
92
89
117
32
109
76
30
13
10
97
106
66
85
19
79
102
1
34
42
82
18
61
3
16
96
67
98
103
12
53
58
37
107
65
114
91
111
49
55
112
59
119
52
69
84
24
35
101
81
15
77
99
71
120
70
14
57
86
90
88
31
26
62
50
68
54
21
8
72
93
87
110
95
43
38
33
60
2
48
75
45
78
94
73
6
108
28
9
116
104
11
23
39
113
5
100
20
7
27
22
17
36
51
80
63
25
83
40
64
74
105
46
56
118
47
44
4
-1
EOF
